p edge 37 298
e 1 6
e 1 8
e 1 9
e 1 10
e 1 13
e 1 14
e 1 18
e 1 25
e 1 27
e 1 29
e 1 32
e 1 33
e 1 34
e 1 36
e 2 4
e 2 8
e 2 9
e 2 12
e 2 13
e 2 14
e 2 15
e 2 18
e 2 21
e 2 27
e 2 32
e 2 33
e 3 4
e 3 8
e 3 11
e 3 14
e 3 17
e 3 18
e 3 19
e 3 20
e 3 23
e 3 24
e 3 27
e 3 28
e 3 35
e 3 36
e 4 6
e 4 8
e 4 11
e 4 15
e 4 16
e 4 17
e 4 18
e 4 19
e 4 20
e 4 21
e 4 23
e 4 24
e 4 27
e 4 28
e 4 33
e 4 34
e 4 35
e 4 36
e 5 6
e 5 10
e 5 18
e 5 22
e 5 25
e 5 26
e 5 29
e 5 30
e 5 34
e 5 36
e 5 37
e 6 7
e 6 10
e 6 14
e 6 15
e 6 18
e 6 22
e 6 25
e 6 26
e 6 27
e 6 29
e 6 30
e 6 31
e 6 32
e 6 33
e 6 34
e 6 36
e 6 37
e 7 16
e 7 26
e 7 27
e 7 29
e 7 30
e 7 31
e 7 32
e 7 33
e 7 36
e 7 37
e 8 9
e 8 12
e 8 15
e 8 16
e 8 18
e 8 21
e 8 27
e 8 33
e 9 10
e 9 14
e 9 15
e 9 18
e 9 25
e 9 27
e 9 30
e 9 32
e 9 33
e 9 36
e 9 37
e 10 12
e 10 14
e 10 18
e 10 22
e 10 25
e 10 26
e 10 27
e 10 29
e 10 30
e 10 31
e 10 32
e 10 34
e 10 36
e 10 37
e 11 17
e 11 18
e 11 19
e 11 20
e 11 23
e 11 24
e 11 27
e 11 28
e 11 35
e 11 36
e 12 14
e 12 15
e 12 17
e 12 18
e 12 25
e 12 27
e 12 29
e 12 30
e 12 31
e 12 33
e 12 34
e 12 36
e 12 37
e 13 14
e 13 15
e 13 18
e 13 21
e 13 22
e 13 25
e 13 26
e 13 30
e 13 32
e 13 33
e 13 34
e 13 37
e 14 15
e 14 16
e 14 18
e 14 25
e 14 26
e 14 27
e 14 29
e 14 32
e 14 33
e 14 34
e 14 36
e 14 37
e 15 16
e 15 18
e 15 27
e 15 32
e 15 33
e 15 37
e 16 26
e 16 27
e 16 30
e 16 33
e 16 37
e 17 18
e 17 19
e 17 20
e 17 23
e 17 24
e 17 27
e 17 28
e 17 35
e 17 36
e 18 19
e 18 20
e 18 21
e 18 22
e 18 23
e 18 24
e 18 25
e 18 26
e 18 27
e 18 28
e 18 29
e 18 30
e 18 31
e 18 32
e 18 33
e 18 34
e 18 35
e 18 36
e 18 37
e 19 20
e 19 23
e 19 24
e 19 27
e 19 28
e 19 35
e 19 36
e 20 23
e 20 24
e 20 27
e 20 28
e 20 35
e 20 36
e 21 22
e 21 26
e 21 27
e 21 30
e 21 31
e 21 34
e 21 36
e 21 37
e 22 25
e 22 26
e 22 30
e 22 31
e 22 34
e 22 37
e 23 24
e 23 27
e 23 28
e 23 35
e 23 36
e 24 27
e 24 28
e 24 35
e 24 36
e 25 27
e 25 29
e 25 30
e 25 31
e 25 33
e 25 34
e 25 36
e 25 37
e 26 27
e 26 29
e 26 30
e 26 33
e 26 36
e 26 37
e 27 28
e 27 29
e 27 32
e 27 33
e 27 34
e 27 35
e 27 36
e 27 37
e 28 33
e 28 35
e 28 36
e 29 30
e 29 32
e 29 34
e 29 36
e 29 37
e 30 31
e 30 33
e 30 34
e 30 36
e 30 37
e 31 34
e 31 36
e 31 37
e 32 34
e 32 36
e 33 34
e 33 36
e 33 37
e 34 36
e 34 37
e 35 36
e 36 37
